solution status: optimal solution found
objective value:                     144795.183029445
d11(0,0)                                            1 	(obj:0)
d11(1,1)                                            1 	(obj:0)
d11(1,2)                                            1 	(obj:0)
d11(2,4)                                            1 	(obj:0)
d11(2,5)                                            1 	(obj:0)
d11(2,7)                                            1 	(obj:0)
d11(2,8)                                            1 	(obj:0)
d11(2,10)                                           1 	(obj:0)
d11(2,11)                                           1 	(obj:0)
d11(3,13)                                           1 	(obj:0)
d11(3,14)                                           1 	(obj:0)
d11(3,16)                                           1 	(obj:0)
d11(3,17)                                           1 	(obj:0)
d11(3,19)                                           1 	(obj:0)
d11(3,20)                                           1 	(obj:0)
d11(3,22)                                           1 	(obj:0)
d11(3,23)                                           1 	(obj:0)
d11(3,25)                                           1 	(obj:0)
d11(3,26)                                           1 	(obj:0)
d11(3,28)                                           1 	(obj:0)
d11(3,29)                                           1 	(obj:0)
d11(3,31)                                           1 	(obj:0)
d11(3,32)                                           1 	(obj:0)
d11(3,34)                                           1 	(obj:0)
d11(3,37)                                           1 	(obj:0)
d11(3,38)                                           1 	(obj:0)
d11(4,40)                                           1 	(obj:0)
d11(4,43)                                           1 	(obj:0)
d11(4,46)                                           1 	(obj:0)
d11(4,49)                                           1 	(obj:0)
d11(4,52)                                           1 	(obj:0)
d11(4,55)                                           1 	(obj:0)
d11(4,58)                                           1 	(obj:0)
d11(4,64)                                           1 	(obj:0)
d11(4,67)                                           1 	(obj:0)
d11(4,70)                                           1 	(obj:0)
d11(4,73)                                           1 	(obj:0)
d11(4,76)                                           1 	(obj:0)
d11(4,79)                                           1 	(obj:0)
d11(4,82)                                           1 	(obj:0)
d11(4,85)                                           1 	(obj:0)
d11(4,88)                                           1 	(obj:0)
d11(4,91)                                           1 	(obj:0)
d11(4,94)                                           1 	(obj:0)
d11(4,97)                                           1 	(obj:0)
d11(4,100)                                          1 	(obj:0)
d11(4,103)                                          1 	(obj:0)
d11(4,106)                                          1 	(obj:0)
d11(4,109)                                          1 	(obj:0)
d11(4,112)                                          1 	(obj:0)
d11(4,118)                                          1 	(obj:0)
d12(1,3)                                            1 	(obj:0)
d12(2,6)                                            1 	(obj:0)
d12(2,9)                                            1 	(obj:0)
d12(2,12)                                           1 	(obj:0)
d12(3,15)                                           1 	(obj:0)
d12(3,18)                                           1 	(obj:0)
d12(3,21)                                           1 	(obj:0)
d12(3,24)                                           1 	(obj:0)
d12(3,27)                                           1 	(obj:0)
d12(3,30)                                           1 	(obj:0)
d12(3,33)                                           1 	(obj:0)
d12(3,36)                                           1 	(obj:0)
d12(3,39)                                           1 	(obj:0)
d12(4,41)                                           1 	(obj:0)
d12(4,42)                                           1 	(obj:0)
d12(4,44)                                           1 	(obj:0)
d12(4,45)                                           1 	(obj:0)
d12(4,47)                                           1 	(obj:0)
d12(4,48)                                           1 	(obj:0)
d12(4,50)                                           1 	(obj:0)
d12(4,51)                                           1 	(obj:0)
d12(4,53)                                           1 	(obj:0)
d12(4,54)                                           1 	(obj:0)
d12(4,56)                                           1 	(obj:0)
d12(4,57)                                           1 	(obj:0)
d12(4,59)                                           1 	(obj:0)
d12(4,60)                                           1 	(obj:0)
d12(4,62)                                           1 	(obj:0)
d12(4,63)                                           1 	(obj:0)
d12(4,65)                                           1 	(obj:0)
d12(4,66)                                           1 	(obj:0)
d12(4,68)                                           1 	(obj:0)
d12(4,69)                                           1 	(obj:0)
d12(4,71)                                           1 	(obj:0)
d12(4,72)                                           1 	(obj:0)
d12(4,74)                                           1 	(obj:0)
d12(4,75)                                           1 	(obj:0)
d12(4,77)                                           1 	(obj:0)
d12(4,78)                                           1 	(obj:0)
d12(4,80)                                           1 	(obj:0)
d12(4,81)                                           1 	(obj:0)
d12(4,83)                                           1 	(obj:0)
d12(4,84)                                           1 	(obj:0)
d12(4,86)                                           1 	(obj:0)
d12(4,87)                                           1 	(obj:0)
d12(4,89)                                           1 	(obj:0)
d12(4,90)                                           1 	(obj:0)
d12(4,92)                                           1 	(obj:0)
d12(4,93)                                           1 	(obj:0)
d12(4,95)                                           1 	(obj:0)
d12(4,96)                                           1 	(obj:0)
d12(4,98)                                           1 	(obj:0)
d12(4,99)                                           1 	(obj:0)
d12(4,101)                                          1 	(obj:0)
d12(4,102)                                          1 	(obj:0)
d12(4,104)                                          1 	(obj:0)
d12(4,105)                                          1 	(obj:0)
d12(4,107)                                          1 	(obj:0)
d12(4,108)                                          1 	(obj:0)
d12(4,110)                                          1 	(obj:0)
d12(4,111)                                          1 	(obj:0)
d12(4,113)                                          1 	(obj:0)
d12(4,114)                                          1 	(obj:0)
d12(4,116)                                          1 	(obj:0)
d12(4,117)                                          1 	(obj:0)
d12(4,119)                                          1 	(obj:0)
d12(4,120)                                          1 	(obj:0)
d21(3,13)                                           1 	(obj:0)
d21(4,40)                                           1 	(obj:0)
d21(4,41)                                           1 	(obj:0)
d21(4,43)                                           1 	(obj:0)
d21(4,49)                                           1 	(obj:0)
d21(4,67)                                           1 	(obj:0)
y2(4,101)                            798.591296999947 	(obj:0)
y2(4,102)                            1894.29827999999 	(obj:0)
y2(4,104)                            798.591296999947 	(obj:0)
y2(4,105)                            1894.29827999999 	(obj:0)
y2(4,107)                            798.591296999947 	(obj:0)
y2(4,108)                            1894.29827999999 	(obj:0)
y2(4,110)                            798.591296999947 	(obj:0)
y2(4,111)                            1894.29827999999 	(obj:0)
y2(4,113)                            798.591296999947 	(obj:0)
y2(4,114)                            1894.29827999999 	(obj:0)
y2(4,116)                            798.591296999947 	(obj:0)
y2(4,117)                            1894.29827999999 	(obj:0)
y2(4,119)                            798.591296999947 	(obj:0)
y2(4,120)                            1894.29827999999 	(obj:0)
STE(1,1)                             6671.76436339866 	(obj:0)
STE(0,0)                                         9450 	(obj:0)
STE(1,2)                             7668.53036673195 	(obj:0)
STE(1,3)                                         8694 	(obj:0)
STE(2,4)                             3893.52872679735 	(obj:0)
STE(2,5)                             4890.29473013064 	(obj:0)
STE(2,6)                             5915.76436339866 	(obj:0)
STE(2,7)                             4890.29473013064 	(obj:0)
STE(2,8)                             5887.06073346393 	(obj:0)
STE(2,9)                             6912.53036673195 	(obj:0)
STE(2,10)                            5915.76436339869 	(obj:0)
STE(2,11)                            6912.53036673198 	(obj:0)
STE(2,12)                                        7938 	(obj:0)
STE(3,13)                              2140.762723464 	(obj:0)
STE(3,14)                            3137.52872679741 	(obj:0)
STE(3,15)                            4050.09206064734 	(obj:0)
STE(3,16)                            3137.52872679729 	(obj:0)
STE(3,17)                            4134.29473013058 	(obj:0)
STE(3,18)                            5046.85806398063 	(obj:0)
STE(3,19)                            4162.99836006531 	(obj:0)
STE(3,20)                            5159.76436339866 	(obj:0)
STE(3,21)                            6072.32769724864 	(obj:0)
STE(3,22)                            3137.52872679729 	(obj:0)
STE(3,23)                            4134.29473013058 	(obj:0)
STE(3,24)                            5046.85806398063 	(obj:0)
STE(3,25)                            4134.29473013058 	(obj:0)
STE(3,26)                            5131.06073346399 	(obj:0)
STE(3,27)                            6043.62406731392 	(obj:0)
STE(3,28)                             5159.7643633986 	(obj:0)
STE(3,29)                            6156.53036673201 	(obj:0)
STE(3,30)                            7069.09370058194 	(obj:0)
STE(3,31)                            4162.99836006534 	(obj:0)
STE(3,32)                            5159.76436339869 	(obj:0)
STE(3,33)                            6072.32769724868 	(obj:0)
STE(3,34)                            5159.76436339863 	(obj:0)
STE(3,35)                            6156.53036673198 	(obj:0)
STE(3,36)                            7069.09370058197 	(obj:0)
STE(3,37)                            6185.23399666665 	(obj:0)
STE(3,38)                            7182.00000000006 	(obj:0)
STE(3,39)                            8094.56333384999 	(obj:0)
STE(4,40)                              1384.762723464 	(obj:0)
STE(4,41)                            2143.42445561395 	(obj:0)
STE(4,42)                            3184.34608946399 	(obj:0)
STE(4,43)                            2381.52872679741 	(obj:0)
STE(4,44)                            3140.19045894736 	(obj:0)
STE(4,45)                             4181.1120927974 	(obj:0)
STE(4,46)                            3294.09206064734 	(obj:0)
STE(4,47)                            4052.75379279728 	(obj:0)
STE(4,48)                            5093.67542664732 	(obj:0)
STE(4,49)                            2381.52872679729 	(obj:0)
STE(4,50)                            3140.19045894724 	(obj:0)
STE(4,51)                            4181.11209279728 	(obj:0)
STE(4,52)                            3378.29473013058 	(obj:0)
STE(4,53)                            4136.95646228053 	(obj:0)
STE(4,54)                            5177.87809613057 	(obj:0)
STE(4,55)                            4290.85806398063 	(obj:0)
STE(4,56)                            5049.51979613058 	(obj:0)
STE(4,57)                            6090.44142998061 	(obj:0)
STE(4,58)                            3406.99836006531 	(obj:0)
STE(4,59)                            4165.66009221526 	(obj:0)
STE(4,60)                            5206.58172606529 	(obj:0)
STE(4,61)                            4403.76436339866 	(obj:0)
STE(4,62)                            5162.42609554861 	(obj:0)
STE(4,63)                            6203.34772939865 	(obj:0)
STE(4,64)                            5316.32769724864 	(obj:0)
STE(4,65)                            6074.98942939859 	(obj:0)
STE(4,66)                            7115.91106324863 	(obj:0)
STE(4,67)                            2381.52872679729 	(obj:0)
STE(4,68)                            3140.19045894724 	(obj:0)
STE(4,69)                            4181.11209279728 	(obj:0)
STE(4,70)                            3378.29473013058 	(obj:0)
STE(4,71)                            4136.95646228053 	(obj:0)
STE(4,72)                            5177.87809613057 	(obj:0)
STE(4,73)                            4290.85806398063 	(obj:0)
STE(4,74)                            5049.51979613058 	(obj:0)
STE(4,75)                            6090.44142998061 	(obj:0)
STE(4,76)                            3378.29473013058 	(obj:0)
STE(4,77)                            4136.95646228053 	(obj:0)
STE(4,78)                            5177.87809613057 	(obj:0)
STE(4,79)                            4375.06073346399 	(obj:0)
STE(4,80)                            5133.72246561394 	(obj:0)
STE(4,81)                            6174.64409946398 	(obj:0)
STE(4,82)                            5287.62406731392 	(obj:0)
STE(4,83)                            6046.28579946387 	(obj:0)
STE(4,84)                             7087.2074333139 	(obj:0)
STE(4,85)                             4403.7643633986 	(obj:0)
STE(4,86)                            5162.42609554855 	(obj:0)
STE(4,87)                            6203.34772939859 	(obj:0)
STE(4,88)                            5400.53036673201 	(obj:0)
STE(4,89)                            6159.19209888196 	(obj:0)
STE(4,90)                              7200.113732732 	(obj:0)
STE(4,91)                            6313.09370058194 	(obj:0)
STE(4,92)                            7071.75543273188 	(obj:0)
STE(4,93)                            8112.67706658192 	(obj:0)
STE(4,94)                            3406.99836006534 	(obj:0)
STE(4,95)                            4165.66009221529 	(obj:0)
STE(4,96)                            5206.58172606533 	(obj:0)
STE(4,97)                            4403.76436339869 	(obj:0)
STE(4,98)                            5162.42609554864 	(obj:0)
STE(4,99)                            6203.34772939868 	(obj:0)
STE(4,100)                           5316.32769724868 	(obj:0)
STE(4,101)                           6074.98942939863 	(obj:0)
STE(4,102)                           7115.91106324866 	(obj:0)
STE(4,103)                           4403.76436339863 	(obj:0)
STE(4,104)                           5162.42609554858 	(obj:0)
STE(4,105)                           6203.34772939862 	(obj:0)
STE(4,106)                           5400.53036673198 	(obj:0)
STE(4,107)                           6159.19209888193 	(obj:0)
STE(4,108)                           7200.11373273197 	(obj:0)
STE(4,109)                           6313.09370058197 	(obj:0)
STE(4,110)                           7071.75543273192 	(obj:0)
STE(4,111)                           8112.67706658195 	(obj:0)
STE(4,112)                           5429.23399666665 	(obj:0)
STE(4,113)                            6187.8957288166 	(obj:0)
STE(4,114)                           7228.81736266664 	(obj:0)
STE(4,115)                           6426.00000000006 	(obj:0)
STE(4,116)                           7184.66173215001 	(obj:0)
STE(4,117)                           8225.58336600005 	(obj:0)
STE(4,118)                           7338.56333384999 	(obj:0)
STE(4,119)                           8097.22506599994 	(obj:0)
STE(4,120)                           9138.14669984997 	(obj:0)
WB(3)                                 3399.3204933139 	(obj:0)
AVE(3)                                3399.3204933139 	(obj:0)
WB(4)                                3353.21046544222 	(obj:0)
AVE(4)                               3353.21046544222 	(obj:0)
y2(4,99)                             1894.29827999999 	(obj:0)
BG(1)                                4319.60782647058 	(obj:10)
BG(2)                                4319.60782647058 	(obj:10)
BG(3)                                         3377.85 	(obj:10)
BG(4)                                      2462.45265 	(obj:10)
WB(1)                                3134.60043707458 	(obj:0)
AVE(1)                               3134.60043707458 	(obj:0)
WB(2)                                3326.45170866643 	(obj:0)
AVE(2)                               3326.45170866643 	(obj:0)
y1(1,1)                              1820.01207294121 	(obj:0)
y1(1,2)                              922.922669941247 	(obj:0)
y1(2,4)                              1820.01207294118 	(obj:0)
y1(2,5)                              922.922669941217 	(obj:0)
y1(2,7)                              1820.01207294118 	(obj:0)
y1(2,8)                              922.922669941217 	(obj:0)
y1(2,10)                             1820.01207294118 	(obj:0)
y1(2,11)                             922.922669941217 	(obj:0)
y1(3,13)                             897.089403000015 	(obj:0)
y1(3,16)                             897.089403000015 	(obj:0)
y1(3,19)                             897.089403000015 	(obj:0)
y1(3,22)                             897.089403000015 	(obj:0)
y1(3,25)                             897.089403000015 	(obj:0)
y1(3,28)                             897.089403000015 	(obj:0)
y1(3,31)                             897.089403000015 	(obj:0)
y1(3,34)                             897.089403000015 	(obj:0)
y1(3,37)                             897.089403000015 	(obj:0)
y2(3,15)                             960.592982999986 	(obj:0)
y2(3,18)                             960.592982999986 	(obj:0)
y2(3,21)                             960.592982999986 	(obj:0)
y2(3,24)                             960.592982999986 	(obj:0)
y2(3,27)                             960.592982999986 	(obj:0)
y2(3,30)                             960.592982999986 	(obj:0)
y2(3,33)                             960.592982999986 	(obj:0)
y2(3,36)                             960.592982999986 	(obj:0)
y2(3,39)                             960.592982999986 	(obj:0)
y2(4,41)                             798.591296999947 	(obj:0)
y2(4,42)                             1894.29827999999 	(obj:0)
y2(4,44)                             798.591296999947 	(obj:0)
y2(4,45)                             1894.29827999999 	(obj:0)
y2(4,47)                             798.591296999947 	(obj:0)
y2(4,48)                             1894.29827999999 	(obj:0)
y2(4,50)                             798.591296999947 	(obj:0)
y2(4,51)                             1894.29827999999 	(obj:0)
y2(4,53)                             798.591296999947 	(obj:0)
y2(4,54)                             1894.29827999999 	(obj:0)
y2(4,56)                             798.591296999947 	(obj:0)
y2(4,57)                             1894.29827999999 	(obj:0)
y2(4,59)                             798.591296999947 	(obj:0)
y2(4,60)                             1894.29827999999 	(obj:0)
y2(4,62)                             798.591296999947 	(obj:0)
y2(4,63)                             1894.29827999999 	(obj:0)
y2(4,65)                             798.591296999947 	(obj:0)
y2(4,66)                             1894.29827999999 	(obj:0)
y2(4,68)                             798.591296999947 	(obj:0)
y2(4,69)                             1894.29827999999 	(obj:0)
y2(4,71)                             798.591296999947 	(obj:0)
y2(4,72)                             1894.29827999999 	(obj:0)
y2(4,74)                             798.591296999947 	(obj:0)
y2(4,75)                             1894.29827999999 	(obj:0)
y2(4,77)                             798.591296999947 	(obj:0)
y2(4,78)                             1894.29827999999 	(obj:0)
y2(4,80)                             798.591296999947 	(obj:0)
y2(4,81)                             1894.29827999999 	(obj:0)
y2(4,83)                             798.591296999947 	(obj:0)
y2(4,84)                             1894.29827999999 	(obj:0)
y2(4,86)                             798.591296999947 	(obj:0)
y2(4,87)                             1894.29827999999 	(obj:0)
y2(4,89)                             798.591296999947 	(obj:0)
y2(4,90)                             1894.29827999999 	(obj:0)
y2(4,92)                             798.591296999947 	(obj:0)
y2(4,93)                             1894.29827999999 	(obj:0)
y2(4,95)                             798.591296999947 	(obj:0)
y2(4,96)                             1894.29827999999 	(obj:0)
y2(4,98)                             798.591296999947 	(obj:0)
